TCS_Benchmarks/redos_fix/regexlib1_output_distinct_1323_1322_1_0.smt2
(set-logic QF_S)
(declare-const x String)
(assert (str.in.re x (re.inter  (re.++ (re.+  (re.union  (str.to.re "\u{7c}") (re.union  (str.to.re "\u{27}") (re.union  (str.to.re "\u{28}") (re.union  (str.to.re "\u{2c}") (re.union  (str.to.re "\u{29}") (re.union (re.range "\u{41}" "\u{5a}") (re.union  (str.to.re "\u{2a}") (re.union (re.range "\u{61}" "\u{7a}") (re.union  (str.to.re "\u{2b}") (re.union  (str.to.re "\u{2e}") (re.union (re.union (re.range "\u{09}" "\u{0d}") (re.range "\u{20}" "\u{20}") (re.range "\u{85}" "\u{85}") (re.range "\u{a0}" "\u{a0}")) (re.union (re.range "\u{30}" "\u{39}") (re.union  (str.to.re "\u{3d}") (re.union  (str.to.re "\u{3a}")  (str.to.re "\u{5f}"))))))))))))))) ) (re.+  (re.union  (str.to.re "\u{2e}") (re.union (re.range "\u{30}" "\u{39}") (re.range "\u{41}" "\u{5a}") (re.range "\u{5f}" "\u{5f}") (re.range "\u{61}" "\u{7a}") (re.range "\u{aa}" "\u{aa}") (re.range "\u{b5}" "\u{b5}") (re.range "\u{ba}" "\u{ba}") (re.range "\u{c0}" "\u{d6}") (re.range "\u{d8}" "\u{f6}") (re.range "\u{f8}" "\u{ff}"))) ))  (re.++ (re.+  (re.union  (str.to.re "\u{7c}") (re.union  (str.to.re "\u{27}") (re.union  (str.to.re "\u{28}") (re.union  (str.to.re "\u{2c}") (re.union  (str.to.re "\u{29}") (re.union (re.range "\u{41}" "\u{5a}") (re.union  (str.to.re "\u{2a}") (re.union (re.range "\u{61}" "\u{7a}") (re.union  (str.to.re "\u{2b}") (re.union  (str.to.re "\u{2e}") (re.union (re.union (re.range "\u{09}" "\u{0d}") (re.range "\u{20}" "\u{20}") (re.range "\u{85}" "\u{85}") (re.range "\u{a0}" "\u{a0}")) (re.union (re.range "\u{30}" "\u{39}") (re.union  (str.to.re "\u{3d}") (re.union  (str.to.re "\u{3a}")  (str.to.re "\u{5f}"))))))))))))))) ) (re.++  (re.++ (re.union (re.range "\u{09}" "\u{0d}") (re.range "\u{20}" "\u{20}") (re.range "\u{85}" "\u{85}") (re.range "\u{a0}" "\u{a0}")) (re.++  (str.to.re "\u{46}") (re.++  (str.to.re "\u{52}") (re.++  (str.to.re "\u{4f}") (re.++  (str.to.re "\u{4d}") (re.union (re.range "\u{09}" "\u{0d}") (re.range "\u{20}" "\u{20}") (re.range "\u{85}" "\u{85}") (re.range "\u{a0}" "\u{a0}"))))))) (re.+  (re.union  (str.to.re "\u{2e}") (re.union (re.range "\u{30}" "\u{39}") (re.range "\u{41}" "\u{5a}") (re.range "\u{5f}" "\u{5f}") (re.range "\u{61}" "\u{7a}") (re.range "\u{aa}" "\u{aa}") (re.range "\u{b5}" "\u{b5}") (re.range "\u{ba}" "\u{ba}") (re.range "\u{c0}" "\u{d6}") (re.range "\u{d8}" "\u{f6}") (re.range "\u{f8}" "\u{ff}"))) ))) )))
(check-sat)
(get-model)