TCS_Benchmarks/redos_fix/regexlib1_output_distinct_1323_1322_1_0.txt
([\|'\(,\)A-Z\*a-z\+\.\s0-9=\:_]+)([\.\w]+)
([\|'\(,\)A-Z\*a-z\+\.\s0-9=\:_]+)(\sFROM\s)([\.\w]+)